!
!   GAMESS Calculation input file
!   
!
 $CONTRL SCFTYP=RHF MAXIT=200 RUNTYP=OPTIMIZE
         COORD=UNIQUE MULT=1 
         ICHARG=0  
         DFTTYP=B3LYP
         MOLPLT=.FALSE. PLTORB=.FALSE.  $END
 $SYSTEM TIMLIM=2879 MWORDS=250  $END

 $FORCE METHOD=SEMINUM NVIB=2 $END 
 $STATPT OPTTOL=0.0005 NSTEP=999 $END
 $STATPT IHREP=0 HSSEND=.TRUE.  $END

 $DFT    METHOD=GRID  NLEB=590  $END

 $BASIS  GBASIS=N31 NGAUSS=6
         NDFUNC=1   NPFUNC=0  $END

 $SCF    DIRSCF=.T. $END
 $GUESS  GUESS=HUCKEL  $END

 $DATA
   
  C1
O     8.0    -0.44423     1.39614     0.18178
C     6.0    -0.85212     0.27493    -0.08125
C     6.0    -0.00602    -0.94441    -0.07832
C     6.0     1.33638    -0.89272    -0.03944
H     1.0    -1.90866     0.09213    -0.34534
H     1.0    -0.52847    -1.89015    -0.11976
H     1.0     1.87242     0.04895    -0.01001
H     1.0     1.92060    -1.80782    -0.04024
 $END


! Customizations after this line are persisted when using Do More Calculations
